&GLOBAL
  PROJECT co-water
  RUN_TYPE md
  PRINT_LEVEL low
&END GLOBAL
&MOTION
  &MD
    ENSEMBLE NVE
    STEPS 500
    TIMESTEP 0.50
    TEMPERATURE 200.0
  &END MD
  &PRINT
    &FORCES ON
    &END FORCES
  &END PRINT
  !&CONSTRAINT
  !  &COLLECTIVE
  !    COLVAR 1
  !    INTERMOLECULAR
  !    TARGET 0.0
  !    &RESTRAINT
  !      K [angstrom^-2kcalmol] 80
  !    &END RESTRAINT
  !  &END COLLECTIVE
  !&END CONSTRAINT
&END MOTION
&FORCE_EVAL
  METHOD FIST
  &MM
    @INCLUDE 'FF_file.pot'
    &POISSON
      &EWALD
        EWALD_TYPE spme
        RCUT 7.0
        ALPHA 0.5
        GMAX 15
        O_SPLINE 6
        !EWALD_TYPE none
        !RCUT 7.0
      &END EWALD
    &END POISSON
  &END MM
  &SUBSYS
    &CELL
      ABC 14.00 14.00 14.00
    &END CELL
    &TOPOLOGY
      COORD_FILE_NAME RP_structure.xyz
      COORD_FILE_FORMAT XYZ
      CONN_FILE_FORMAT MOL_SET
      &MOL_SET
        @INCLUDE 'RP_molset.pot'
        !@INCLUDE 'classical_molset.pot'
      &END MOL_SET
      &DUMP_PSF
      &END DUMP_PSF
    &END TOPOLOGY
    !&COLVAR
    !  &DISTANCE
    !    &POINT 1
    !      ATOMS 1..1024
    !      TYPE GEO_CENTER
    !    &END POINT
    !    &POINT 2
    !      ATOMS 1298
    !      TYPE GEO_CENTER
    !    &END POINT
    !    POINTS 1 2 
    !    AXIS XYZ
    !  &END DISTANCE
    !&END COLVAR 
    @INCLUDE 'RP_type.pot'
  &END SUBSYS
&END FORCE_EVAL
